p tw 192 3041 8 
1 9 
1 11 
1 161 
1 163 
2 7 
2 10 
2 12 
2 162 
2 164 
3 8 
3 10 
3 153 
4 7 
4 9 
4 154 
5 9 
5 10 
5 155 
6 7 
6 8 
6 156 
11 18 
11 19 
11 163 
12 17 
12 20 
12 164 
13 18 
13 20 
13 23 
14 17 
14 19 
14 24 
15 19 
15 20 
15 25 
16 17 
16 18 
16 26 
21 28 
21 29 
21 31 
21 165 
21 167 
22 27 
22 30 
22 32 
22 166 
22 168 
23 28 
23 30 
24 27 
24 29 
25 29 
25 30 
26 27 
26 28 
31 38 
31 39 
31 167 
32 37 
32 40 
32 168 
33 38 
33 40 
33 43 
34 37 
34 39 
34 44 
35 39 
35 40 
35 45 
36 37 
36 38 
36 46 
41 48 
41 49 
41 51 
41 169 
41 171 
42 47 
42 50 
42 52 
42 170 
42 172 
43 48 
43 50 
44 47 
44 49 
45 49 
45 50 
46 47 
46 48 
51 58 
51 59 
51 171 
52 57 
52 60 
52 172 
53 58 
53 60 
53 63 
54 57 
54 59 
54 64 
55 59 
55 60 
55 65 
56 57 
56 58 
56 66 
61 68 
61 69 
61 71 
61 173 
61 175 
62 67 
62 70 
62 72 
62 174 
62 176 
63 68 
63 70 
64 67 
64 69 
65 69 
65 70 
66 67 
66 68 
71 78 
71 79 
71 175 
72 77 
72 80 
72 176 
73 78 
73 80 
73 83 
74 77 
74 79 
74 84 
75 79 
75 80 
75 85 
76 77 
76 78 
76 86 
81 88 
81 89 
81 91 
81 177 
81 179 
82 87 
82 90 
82 92 
82 178 
82 180 
83 88 
83 90 
84 87 
84 89 
85 89 
85 90 
86 87 
86 88 
91 98 
91 99 
91 179 
92 97 
92 100 
92 180 
93 98 
93 100 
93 103 
94 97 
94 99 
94 104 
95 99 
95 100 
95 105 
96 97 
96 98 
96 106 
101 108 
101 109 
101 111 
101 181 
101 183 
102 107 
102 110 
102 112 
102 182 
102 184 
103 108 
103 110 
104 107 
104 109 
105 109 
105 110 
106 107 
106 108 
111 118 
111 119 
111 183 
112 117 
112 120 
112 184 
113 118 
113 120 
113 123 
114 117 
114 119 
114 124 
115 119 
115 120 
115 125 
116 117 
116 118 
116 126 
121 128 
121 129 
121 131 
121 185 
121 187 
122 127 
122 130 
122 132 
122 186 
122 188 
123 128 
123 130 
124 127 
124 129 
125 129 
125 130 
126 127 
126 128 
131 138 
131 139 
131 187 
132 137 
132 140 
132 188 
133 138 
133 140 
133 143 
134 137 
134 139 
134 144 
135 139 
135 140 
135 145 
136 137 
136 138 
136 146 
141 148 
141 149 
141 151 
141 189 
141 191 
142 147 
142 150 
142 152 
142 190 
142 192 
143 148 
143 150 
144 147 
144 149 
145 149 
145 150 
146 147 
146 148 
151 158 
151 159 
151 191 
152 157 
152 160 
152 192 
153 158 
153 160 
154 157 
154 159 
155 159 
155 160 
156 157 
156 158 
161 162 
163 164 
165 166 
167 168 
169 170 
171 172 
173 174 
175 176 
177 178 
179 180 
181 182 
183 184 
185 186 
187 188 
189 190 
191 192 
